(set-logic LIA) (declare-var n!0 Int) (declare-var inI0 Int) (declare-var a!M4 Int) (declare-var J15 Bool) (declare-var nPostExec Int) (declare-var aPostExec Int) (declare-var a!21 Int) (synth-fun rankingFunction!0 ((arg0 Int) (arg1 Int)) Int ((NTInt Int) (NTbool Bool)) ((NTInt Int (arg0 arg1 0 1 (- NTInt) (+ NTInt NTInt) (- NTInt NTInt) (ite NTbool NTInt NTInt))) (NTbool Bool ((not NTbool) (and NTbool NTbool) (or NTbool NTbool) (ite NTbool NTbool NTbool) (= NTInt NTInt) (< NTInt NTInt) (> NTInt NTInt))))) (constraint (=> (and (and (and (and (and (and (let ((a!1 (not (<= (* (+ 1 a!M4) (+ 1 a!M4)) n!0)))) (= J15 a!1)) (= a!21 (+ 1 a!M4))) (=> (not J15) (= aPostExec a!21))) (not J15)) (= inI0 0)) (>= a!M4 0)) (= n!0 nPostExec)) (and (> (rankingFunction!0 n!0 a!M4) (rankingFunction!0 nPostExec aPostExec)) (>= (rankingFunction!0 n!0 a!M4) 0)))) (check-synth)